(set-logic QF_LRA)
(declare-fun T1 () Real )
(declare-fun T2 () Real )
(declare-fun T3 () Real )
(declare-fun T4 () Real )
(declare-fun T5 () Real )
(declare-fun T6 () Real )
(declare-fun T7 () Real )
(declare-fun T8 () Real )
(declare-fun T9 () Real )
(declare-fun T10 () Real )
(declare-fun Z () Real )
(declare-fun k () Real )
(assert (let
(( $goal (>= Z k) ))
(let
((
$phi ( and 
(or ( <= ( + T1 29 ) T2 ) ( <= ( + T2 33 ) T1 ) )
(or ( <= ( + T1 121 )  ( + T2 33 ) ) ( <= ( + T2 83 )( + T1 29 ) ) )
(or ( <= ( + T1 195 )  ( + T2 83 ) ) ( <= ( + T2 102 )( + T1 121 ) ) )
(or ( <= ( + T1 213 )  ( + T2 102 ) ) ( <= ( + T2 113 )( + T1 195 ) ) )
(or ( <= ( + T1 253 )  ( + T2 113 ) ) ( <= ( + T2 204 )( + T1 213 ) ) )
(or ( <= ( + T1 351 )  ( + T2 204 ) ) ( <= ( + T2 296 )( + T1 253 ) ) )
(or ( <= ( + T1 388 )  ( + T2 296 ) ) ( <= ( + T2 337 )( + T1 351 ) ) )
(or ( <= ( + T1 411 )  ( + T2 337 ) ) ( <= ( + T2 417 )( + T1 388 ) ) )
(or ( <= ( + T1 492 )  ( + T2 417 ) ) ( <= ( + T2 500 )( + T1 411 ) ) )
(or ( <= ( + T1 556 )  ( + T2 500 ) ) ( <= ( + T2 514 )( + T1 492 ) ) )
(or ( <= ( + T1 626 )  ( + T2 514 ) ) ( <= ( + T2 542 )( + T1 556 ) ) )
(or ( <= ( + T1 721 )  ( + T2 542 ) ) ( <= ( + T2 640 )( + T1 626 ) ) )
(or ( <= ( + T1 29 ) T3 ) ( <= ( + T3 47 ) T1 ) )
(or ( <= ( + T1 121 )  ( + T3 47 ) ) ( <= ( + T3 133 )( + T1 29 ) ) )
(or ( <= ( + T1 195 )  ( + T3 133 ) ) ( <= ( + T3 172 )( + T1 121 ) ) )
(or ( <= ( + T1 213 )  ( + T3 172 ) ) ( <= ( + T3 200 )( + T1 195 ) ) )
(or ( <= ( + T1 253 )  ( + T3 200 ) ) ( <= ( + T3 268 )( + T1 213 ) ) )
(or ( <= ( + T1 351 )  ( + T3 268 ) ) ( <= ( + T3 354 )( + T1 253 ) ) )
(or ( <= ( + T1 388 )  ( + T3 354 ) ) ( <= ( + T3 427 )( + T1 351 ) ) )
(or ( <= ( + T1 411 )  ( + T3 427 ) ) ( <= ( + T3 523 )( + T1 388 ) ) )
(or ( <= ( + T1 492 )  ( + T3 523 ) ) ( <= ( + T3 600 )( + T1 411 ) ) )
(or ( <= ( + T1 556 )  ( + T3 600 ) ) ( <= ( + T3 646 )( + T1 492 ) ) )
(or ( <= ( + T1 626 )  ( + T3 646 ) ) ( <= ( + T3 712 )( + T1 556 ) ) )
(or ( <= ( + T1 721 )  ( + T3 712 ) ) ( <= ( + T3 728 )( + T1 626 ) ) )
(or ( <= ( + T1 29 ) T4 ) ( <= ( + T4 43 ) T1 ) )
(or ( <= ( + T1 121 )  ( + T4 43 ) ) ( <= ( + T4 45 )( + T1 29 ) ) )
(or ( <= ( + T1 195 )  ( + T4 45 ) ) ( <= ( + T4 135 )( + T1 121 ) ) )
(or ( <= ( + T1 213 )  ( + T4 135 ) ) ( <= ( + T4 210 )( + T1 195 ) ) )
(or ( <= ( + T1 253 )  ( + T4 210 ) ) ( <= ( + T4 227 )( + T1 213 ) ) )
(or ( <= ( + T1 351 )  ( + T4 227 ) ) ( <= ( + T4 287 )( + T1 253 ) ) )
(or ( <= ( + T1 388 )  ( + T4 287 ) ) ( <= ( + T4 308 )( + T1 351 ) ) )
(or ( <= ( + T1 411 )  ( + T4 308 ) ) ( <= ( + T4 357 )( + T1 388 ) ) )
(or ( <= ( + T1 492 )  ( + T4 357 ) ) ( <= ( + T4 418 )( + T1 411 ) ) )
(or ( <= ( + T1 556 )  ( + T4 418 ) ) ( <= ( + T4 457 )( + T1 492 ) ) )
(or ( <= ( + T1 626 )  ( + T4 457 ) ) ( <= ( + T4 517 )( + T1 556 ) ) )
(or ( <= ( + T1 721 )  ( + T4 517 ) ) ( <= ( + T4 520 )( + T1 626 ) ) )
(or ( <= ( + T1 29 ) T5 ) ( <= ( + T5 82 ) T1 ) )
(or ( <= ( + T1 121 )  ( + T5 82 ) ) ( <= ( + T5 134 )( + T1 29 ) ) )
(or ( <= ( + T1 195 )  ( + T5 134 ) ) ( <= ( + T5 216 )( + T1 121 ) ) )
(or ( <= ( + T1 213 )  ( + T5 216 ) ) ( <= ( + T5 233 )( + T1 195 ) ) )
(or ( <= ( + T1 253 )  ( + T5 233 ) ) ( <= ( + T5 250 )( + T1 213 ) ) )
(or ( <= ( + T1 351 )  ( + T5 250 ) ) ( <= ( + T5 260 )( + T1 253 ) ) )
(or ( <= ( + T1 388 )  ( + T5 260 ) ) ( <= ( + T5 274 )( + T1 351 ) ) )
(or ( <= ( + T1 411 )  ( + T5 274 ) ) ( <= ( + T5 337 )( + T1 388 ) ) )
(or ( <= ( + T1 492 )  ( + T5 337 ) ) ( <= ( + T5 384 )( + T1 411 ) ) )
(or ( <= ( + T1 556 )  ( + T5 384 ) ) ( <= ( + T5 388 )( + T1 492 ) ) )
(or ( <= ( + T1 626 )  ( + T5 388 ) ) ( <= ( + T5 431 )( + T1 556 ) ) )
(or ( <= ( + T1 721 )  ( + T5 431 ) ) ( <= ( + T5 445 )( + T1 626 ) ) )
(or ( <= ( + T1 29 ) T6 ) ( <= ( + T6 89 ) T1 ) )
(or ( <= ( + T1 121 )  ( + T6 89 ) ) ( <= ( + T6 104 )( + T1 29 ) ) )
(or ( <= ( + T1 195 )  ( + T6 104 ) ) ( <= ( + T6 166 )( + T1 121 ) ) )
(or ( <= ( + T1 213 )  ( + T6 166 ) ) ( <= ( + T6 183 )( + T1 195 ) ) )
(or ( <= ( + T1 253 )  ( + T6 183 ) ) ( <= ( + T6 244 )( + T1 213 ) ) )
(or ( <= ( + T1 351 )  ( + T6 244 ) ) ( <= ( + T6 271 )( + T1 253 ) ) )
(or ( <= ( + T1 388 )  ( + T6 271 ) ) ( <= ( + T6 355 )( + T1 351 ) ) )
(or ( <= ( + T1 411 )  ( + T6 355 ) ) ( <= ( + T6 410 )( + T1 388 ) ) )
(or ( <= ( + T1 492 )  ( + T6 410 ) ) ( <= ( + T6 438 )( + T1 411 ) ) )
(or ( <= ( + T1 556 )  ( + T6 438 ) ) ( <= ( + T6 512 )( + T1 492 ) ) )
(or ( <= ( + T1 626 )  ( + T6 512 ) ) ( <= ( + T6 594 )( + T1 556 ) ) )
(or ( <= ( + T1 721 )  ( + T6 594 ) ) ( <= ( + T6 690 )( + T1 626 ) ) )
(or ( <= ( + T1 29 ) T7 ) ( <= ( + T7 85 ) T1 ) )
(or ( <= ( + T1 121 )  ( + T7 85 ) ) ( <= ( + T7 87 )( + T1 29 ) ) )
(or ( <= ( + T1 195 )  ( + T7 87 ) ) ( <= ( + T7 131 )( + T1 121 ) ) )
(or ( <= ( + T1 213 )  ( + T7 131 ) ) ( <= ( + T7 228 )( + T1 195 ) ) )
(or ( <= ( + T1 253 )  ( + T7 228 ) ) ( <= ( + T7 321 )( + T1 213 ) ) )
(or ( <= ( + T1 351 )  ( + T7 321 ) ) ( <= ( + T7 376 )( + T1 253 ) ) )
(or ( <= ( + T1 388 )  ( + T7 376 ) ) ( <= ( + T7 475 )( + T1 351 ) ) )
(or ( <= ( + T1 411 )  ( + T7 475 ) ) ( <= ( + T7 549 )( + T1 388 ) ) )
(or ( <= ( + T1 492 )  ( + T7 549 ) ) ( <= ( + T7 555 )( + T1 411 ) ) )
(or ( <= ( + T1 556 )  ( + T7 555 ) ) ( <= ( + T7 635 )( + T1 492 ) ) )
(or ( <= ( + T1 626 )  ( + T7 635 ) ) ( <= ( + T7 725 )( + T1 556 ) ) )
(or ( <= ( + T1 721 )  ( + T7 725 ) ) ( <= ( + T7 799 )( + T1 626 ) ) )
(or ( <= ( + T1 29 ) T8 ) ( <= ( + T8 41 ) T1 ) )
(or ( <= ( + T1 121 )  ( + T8 41 ) ) ( <= ( + T8 96 )( + T1 29 ) ) )
(or ( <= ( + T1 195 )  ( + T8 96 ) ) ( <= ( + T8 185 )( + T1 121 ) ) )
(or ( <= ( + T1 213 )  ( + T8 185 ) ) ( <= ( + T8 273 )( + T1 195 ) ) )
(or ( <= ( + T1 253 )  ( + T8 273 ) ) ( <= ( + T8 283 )( + T1 213 ) ) )
(or ( <= ( + T1 351 )  ( + T8 283 ) ) ( <= ( + T8 314 )( + T1 253 ) ) )
(or ( <= ( + T1 388 )  ( + T8 314 ) ) ( <= ( + T8 315 )( + T1 351 ) ) )
(or ( <= ( + T1 411 )  ( + T8 315 ) ) ( <= ( + T8 365 )( + T1 388 ) ) )
(or ( <= ( + T1 492 )  ( + T8 365 ) ) ( <= ( + T8 462 )( + T1 411 ) ) )
(or ( <= ( + T1 556 )  ( + T8 462 ) ) ( <= ( + T8 476 )( + T1 492 ) ) )
(or ( <= ( + T1 626 )  ( + T8 476 ) ) ( <= ( + T8 542 )( + T1 556 ) ) )
(or ( <= ( + T1 721 )  ( + T8 542 ) ) ( <= ( + T8 551 )( + T1 626 ) ) )
(or ( <= ( + T1 29 ) T9 ) ( <= ( + T9 40 ) T1 ) )
(or ( <= ( + T1 121 )  ( + T9 40 ) ) ( <= ( + T9 90 )( + T1 29 ) ) )
(or ( <= ( + T1 195 )  ( + T9 90 ) ) ( <= ( + T9 106 )( + T1 121 ) ) )
(or ( <= ( + T1 213 )  ( + T9 106 ) ) ( <= ( + T9 125 )( + T1 195 ) ) )
(or ( <= ( + T1 253 )  ( + T9 125 ) ) ( <= ( + T9 200 )( + T1 213 ) ) )
(or ( <= ( + T1 351 )  ( + T9 200 ) ) ( <= ( + T9 297 )( + T1 253 ) ) )
(or ( <= ( + T1 388 )  ( + T9 297 ) ) ( <= ( + T9 311 )( + T1 351 ) ) )
(or ( <= ( + T1 411 )  ( + T9 311 ) ) ( <= ( + T9 322 )( + T1 388 ) ) )
(or ( <= ( + T1 492 )  ( + T9 322 ) ) ( <= ( + T9 420 )( + T1 411 ) ) )
(or ( <= ( + T1 556 )  ( + T9 420 ) ) ( <= ( + T9 430 )( + T1 492 ) ) )
(or ( <= ( + T1 626 )  ( + T9 430 ) ) ( <= ( + T9 437 )( + T1 556 ) ) )
(or ( <= ( + T1 721 )  ( + T9 437 ) ) ( <= ( + T9 479 )( + T1 626 ) ) )
(or ( <= ( + T1 29 ) T10 ) ( <= ( + T10 64 ) T1 ) )
(or ( <= ( + T1 121 )  ( + T10 64 ) ) ( <= ( + T10 121 )( + T1 29 ) ) )
(or ( <= ( + T1 195 )  ( + T10 121 ) ) ( <= ( + T10 189 )( + T1 121 ) ) )
(or ( <= ( + T1 213 )  ( + T10 189 ) ) ( <= ( + T10 211 )( + T1 195 ) ) )
(or ( <= ( + T1 253 )  ( + T10 211 ) ) ( <= ( + T10 247 )( + T1 213 ) ) )
(or ( <= ( + T1 351 )  ( + T10 247 ) ) ( <= ( + T10 256 )( + T1 253 ) ) )
(or ( <= ( + T1 388 )  ( + T10 256 ) ) ( <= ( + T10 303 )( + T1 351 ) ) )
(or ( <= ( + T1 411 )  ( + T10 303 ) ) ( <= ( + T10 380 )( + T1 388 ) ) )
(or ( <= ( + T1 492 )  ( + T10 380 ) ) ( <= ( + T10 444 )( + T1 411 ) ) )
(or ( <= ( + T1 556 )  ( + T10 444 ) ) ( <= ( + T10 479 )( + T1 492 ) ) )
(or ( <= ( + T1 626 )  ( + T10 479 ) ) ( <= ( + T10 495 )( + T1 556 ) ) )
(or ( <= ( + T1 721 )  ( + T10 495 ) ) ( <= ( + T10 520 )( + T1 626 ) ) )
(or ( <= ( + T2 33 ) T3 ) ( <= ( + T3 47 ) T2 ) )
(or ( <= ( + T2 83 )  ( + T3 47 ) ) ( <= ( + T3 133 )( + T2 33 ) ) )
(or ( <= ( + T2 102 )  ( + T3 133 ) ) ( <= ( + T3 172 )( + T2 83 ) ) )
(or ( <= ( + T2 113 )  ( + T3 172 ) ) ( <= ( + T3 200 )( + T2 102 ) ) )
(or ( <= ( + T2 204 )  ( + T3 200 ) ) ( <= ( + T3 268 )( + T2 113 ) ) )
(or ( <= ( + T2 296 )  ( + T3 268 ) ) ( <= ( + T3 354 )( + T2 204 ) ) )
(or ( <= ( + T2 337 )  ( + T3 354 ) ) ( <= ( + T3 427 )( + T2 296 ) ) )
(or ( <= ( + T2 417 )  ( + T3 427 ) ) ( <= ( + T3 523 )( + T2 337 ) ) )
(or ( <= ( + T2 500 )  ( + T3 523 ) ) ( <= ( + T3 600 )( + T2 417 ) ) )
(or ( <= ( + T2 514 )  ( + T3 600 ) ) ( <= ( + T3 646 )( + T2 500 ) ) )
(or ( <= ( + T2 542 )  ( + T3 646 ) ) ( <= ( + T3 712 )( + T2 514 ) ) )
(or ( <= ( + T2 640 )  ( + T3 712 ) ) ( <= ( + T3 728 )( + T2 542 ) ) )
(or ( <= ( + T2 33 ) T4 ) ( <= ( + T4 43 ) T2 ) )
(or ( <= ( + T2 83 )  ( + T4 43 ) ) ( <= ( + T4 45 )( + T2 33 ) ) )
(or ( <= ( + T2 102 )  ( + T4 45 ) ) ( <= ( + T4 135 )( + T2 83 ) ) )
(or ( <= ( + T2 113 )  ( + T4 135 ) ) ( <= ( + T4 210 )( + T2 102 ) ) )
(or ( <= ( + T2 204 )  ( + T4 210 ) ) ( <= ( + T4 227 )( + T2 113 ) ) )
(or ( <= ( + T2 296 )  ( + T4 227 ) ) ( <= ( + T4 287 )( + T2 204 ) ) )
(or ( <= ( + T2 337 )  ( + T4 287 ) ) ( <= ( + T4 308 )( + T2 296 ) ) )
(or ( <= ( + T2 417 )  ( + T4 308 ) ) ( <= ( + T4 357 )( + T2 337 ) ) )
(or ( <= ( + T2 500 )  ( + T4 357 ) ) ( <= ( + T4 418 )( + T2 417 ) ) )
(or ( <= ( + T2 514 )  ( + T4 418 ) ) ( <= ( + T4 457 )( + T2 500 ) ) )
(or ( <= ( + T2 542 )  ( + T4 457 ) ) ( <= ( + T4 517 )( + T2 514 ) ) )
(or ( <= ( + T2 640 )  ( + T4 517 ) ) ( <= ( + T4 520 )( + T2 542 ) ) )
(or ( <= ( + T2 33 ) T5 ) ( <= ( + T5 82 ) T2 ) )
(or ( <= ( + T2 83 )  ( + T5 82 ) ) ( <= ( + T5 134 )( + T2 33 ) ) )
(or ( <= ( + T2 102 )  ( + T5 134 ) ) ( <= ( + T5 216 )( + T2 83 ) ) )
(or ( <= ( + T2 113 )  ( + T5 216 ) ) ( <= ( + T5 233 )( + T2 102 ) ) )
(or ( <= ( + T2 204 )  ( + T5 233 ) ) ( <= ( + T5 250 )( + T2 113 ) ) )
(or ( <= ( + T2 296 )  ( + T5 250 ) ) ( <= ( + T5 260 )( + T2 204 ) ) )
(or ( <= ( + T2 337 )  ( + T5 260 ) ) ( <= ( + T5 274 )( + T2 296 ) ) )
(or ( <= ( + T2 417 )  ( + T5 274 ) ) ( <= ( + T5 337 )( + T2 337 ) ) )
(or ( <= ( + T2 500 )  ( + T5 337 ) ) ( <= ( + T5 384 )( + T2 417 ) ) )
(or ( <= ( + T2 514 )  ( + T5 384 ) ) ( <= ( + T5 388 )( + T2 500 ) ) )
(or ( <= ( + T2 542 )  ( + T5 388 ) ) ( <= ( + T5 431 )( + T2 514 ) ) )
(or ( <= ( + T2 640 )  ( + T5 431 ) ) ( <= ( + T5 445 )( + T2 542 ) ) )
(or ( <= ( + T2 33 ) T6 ) ( <= ( + T6 89 ) T2 ) )
(or ( <= ( + T2 83 )  ( + T6 89 ) ) ( <= ( + T6 104 )( + T2 33 ) ) )
(or ( <= ( + T2 102 )  ( + T6 104 ) ) ( <= ( + T6 166 )( + T2 83 ) ) )
(or ( <= ( + T2 113 )  ( + T6 166 ) ) ( <= ( + T6 183 )( + T2 102 ) ) )
(or ( <= ( + T2 204 )  ( + T6 183 ) ) ( <= ( + T6 244 )( + T2 113 ) ) )
(or ( <= ( + T2 296 )  ( + T6 244 ) ) ( <= ( + T6 271 )( + T2 204 ) ) )
(or ( <= ( + T2 337 )  ( + T6 271 ) ) ( <= ( + T6 355 )( + T2 296 ) ) )
(or ( <= ( + T2 417 )  ( + T6 355 ) ) ( <= ( + T6 410 )( + T2 337 ) ) )
(or ( <= ( + T2 500 )  ( + T6 410 ) ) ( <= ( + T6 438 )( + T2 417 ) ) )
(or ( <= ( + T2 514 )  ( + T6 438 ) ) ( <= ( + T6 512 )( + T2 500 ) ) )
(or ( <= ( + T2 542 )  ( + T6 512 ) ) ( <= ( + T6 594 )( + T2 514 ) ) )
(or ( <= ( + T2 640 )  ( + T6 594 ) ) ( <= ( + T6 690 )( + T2 542 ) ) )
(or ( <= ( + T2 33 ) T7 ) ( <= ( + T7 85 ) T2 ) )
(or ( <= ( + T2 83 )  ( + T7 85 ) ) ( <= ( + T7 87 )( + T2 33 ) ) )
(or ( <= ( + T2 102 )  ( + T7 87 ) ) ( <= ( + T7 131 )( + T2 83 ) ) )
(or ( <= ( + T2 113 )  ( + T7 131 ) ) ( <= ( + T7 228 )( + T2 102 ) ) )
(or ( <= ( + T2 204 )  ( + T7 228 ) ) ( <= ( + T7 321 )( + T2 113 ) ) )
(or ( <= ( + T2 296 )  ( + T7 321 ) ) ( <= ( + T7 376 )( + T2 204 ) ) )
(or ( <= ( + T2 337 )  ( + T7 376 ) ) ( <= ( + T7 475 )( + T2 296 ) ) )
(or ( <= ( + T2 417 )  ( + T7 475 ) ) ( <= ( + T7 549 )( + T2 337 ) ) )
(or ( <= ( + T2 500 )  ( + T7 549 ) ) ( <= ( + T7 555 )( + T2 417 ) ) )
(or ( <= ( + T2 514 )  ( + T7 555 ) ) ( <= ( + T7 635 )( + T2 500 ) ) )
(or ( <= ( + T2 542 )  ( + T7 635 ) ) ( <= ( + T7 725 )( + T2 514 ) ) )
(or ( <= ( + T2 640 )  ( + T7 725 ) ) ( <= ( + T7 799 )( + T2 542 ) ) )
(or ( <= ( + T2 33 ) T8 ) ( <= ( + T8 41 ) T2 ) )
(or ( <= ( + T2 83 )  ( + T8 41 ) ) ( <= ( + T8 96 )( + T2 33 ) ) )
(or ( <= ( + T2 102 )  ( + T8 96 ) ) ( <= ( + T8 185 )( + T2 83 ) ) )
(or ( <= ( + T2 113 )  ( + T8 185 ) ) ( <= ( + T8 273 )( + T2 102 ) ) )
(or ( <= ( + T2 204 )  ( + T8 273 ) ) ( <= ( + T8 283 )( + T2 113 ) ) )
(or ( <= ( + T2 296 )  ( + T8 283 ) ) ( <= ( + T8 314 )( + T2 204 ) ) )
(or ( <= ( + T2 337 )  ( + T8 314 ) ) ( <= ( + T8 315 )( + T2 296 ) ) )
(or ( <= ( + T2 417 )  ( + T8 315 ) ) ( <= ( + T8 365 )( + T2 337 ) ) )
(or ( <= ( + T2 500 )  ( + T8 365 ) ) ( <= ( + T8 462 )( + T2 417 ) ) )
(or ( <= ( + T2 514 )  ( + T8 462 ) ) ( <= ( + T8 476 )( + T2 500 ) ) )
(or ( <= ( + T2 542 )  ( + T8 476 ) ) ( <= ( + T8 542 )( + T2 514 ) ) )
(or ( <= ( + T2 640 )  ( + T8 542 ) ) ( <= ( + T8 551 )( + T2 542 ) ) )
(or ( <= ( + T2 33 ) T9 ) ( <= ( + T9 40 ) T2 ) )
(or ( <= ( + T2 83 )  ( + T9 40 ) ) ( <= ( + T9 90 )( + T2 33 ) ) )
(or ( <= ( + T2 102 )  ( + T9 90 ) ) ( <= ( + T9 106 )( + T2 83 ) ) )
(or ( <= ( + T2 113 )  ( + T9 106 ) ) ( <= ( + T9 125 )( + T2 102 ) ) )
(or ( <= ( + T2 204 )  ( + T9 125 ) ) ( <= ( + T9 200 )( + T2 113 ) ) )
(or ( <= ( + T2 296 )  ( + T9 200 ) ) ( <= ( + T9 297 )( + T2 204 ) ) )
(or ( <= ( + T2 337 )  ( + T9 297 ) ) ( <= ( + T9 311 )( + T2 296 ) ) )
(or ( <= ( + T2 417 )  ( + T9 311 ) ) ( <= ( + T9 322 )( + T2 337 ) ) )
(or ( <= ( + T2 500 )  ( + T9 322 ) ) ( <= ( + T9 420 )( + T2 417 ) ) )
(or ( <= ( + T2 514 )  ( + T9 420 ) ) ( <= ( + T9 430 )( + T2 500 ) ) )
(or ( <= ( + T2 542 )  ( + T9 430 ) ) ( <= ( + T9 437 )( + T2 514 ) ) )
(or ( <= ( + T2 640 )  ( + T9 437 ) ) ( <= ( + T9 479 )( + T2 542 ) ) )
(or ( <= ( + T2 33 ) T10 ) ( <= ( + T10 64 ) T2 ) )
(or ( <= ( + T2 83 )  ( + T10 64 ) ) ( <= ( + T10 121 )( + T2 33 ) ) )
(or ( <= ( + T2 102 )  ( + T10 121 ) ) ( <= ( + T10 189 )( + T2 83 ) ) )
(or ( <= ( + T2 113 )  ( + T10 189 ) ) ( <= ( + T10 211 )( + T2 102 ) ) )
(or ( <= ( + T2 204 )  ( + T10 211 ) ) ( <= ( + T10 247 )( + T2 113 ) ) )
(or ( <= ( + T2 296 )  ( + T10 247 ) ) ( <= ( + T10 256 )( + T2 204 ) ) )
(or ( <= ( + T2 337 )  ( + T10 256 ) ) ( <= ( + T10 303 )( + T2 296 ) ) )
(or ( <= ( + T2 417 )  ( + T10 303 ) ) ( <= ( + T10 380 )( + T2 337 ) ) )
(or ( <= ( + T2 500 )  ( + T10 380 ) ) ( <= ( + T10 444 )( + T2 417 ) ) )
(or ( <= ( + T2 514 )  ( + T10 444 ) ) ( <= ( + T10 479 )( + T2 500 ) ) )
(or ( <= ( + T2 542 )  ( + T10 479 ) ) ( <= ( + T10 495 )( + T2 514 ) ) )
(or ( <= ( + T2 640 )  ( + T10 495 ) ) ( <= ( + T10 520 )( + T2 542 ) ) )
(or ( <= ( + T3 47 ) T4 ) ( <= ( + T4 43 ) T3 ) )
(or ( <= ( + T3 133 )  ( + T4 43 ) ) ( <= ( + T4 45 )( + T3 47 ) ) )
(or ( <= ( + T3 172 )  ( + T4 45 ) ) ( <= ( + T4 135 )( + T3 133 ) ) )
(or ( <= ( + T3 200 )  ( + T4 135 ) ) ( <= ( + T4 210 )( + T3 172 ) ) )
(or ( <= ( + T3 268 )  ( + T4 210 ) ) ( <= ( + T4 227 )( + T3 200 ) ) )
(or ( <= ( + T3 354 )  ( + T4 227 ) ) ( <= ( + T4 287 )( + T3 268 ) ) )
(or ( <= ( + T3 427 )  ( + T4 287 ) ) ( <= ( + T4 308 )( + T3 354 ) ) )
(or ( <= ( + T3 523 )  ( + T4 308 ) ) ( <= ( + T4 357 )( + T3 427 ) ) )
(or ( <= ( + T3 600 )  ( + T4 357 ) ) ( <= ( + T4 418 )( + T3 523 ) ) )
(or ( <= ( + T3 646 )  ( + T4 418 ) ) ( <= ( + T4 457 )( + T3 600 ) ) )
(or ( <= ( + T3 712 )  ( + T4 457 ) ) ( <= ( + T4 517 )( + T3 646 ) ) )
(or ( <= ( + T3 728 )  ( + T4 517 ) ) ( <= ( + T4 520 )( + T3 712 ) ) )
(or ( <= ( + T3 47 ) T5 ) ( <= ( + T5 82 ) T3 ) )
(or ( <= ( + T3 133 )  ( + T5 82 ) ) ( <= ( + T5 134 )( + T3 47 ) ) )
(or ( <= ( + T3 172 )  ( + T5 134 ) ) ( <= ( + T5 216 )( + T3 133 ) ) )
(or ( <= ( + T3 200 )  ( + T5 216 ) ) ( <= ( + T5 233 )( + T3 172 ) ) )
(or ( <= ( + T3 268 )  ( + T5 233 ) ) ( <= ( + T5 250 )( + T3 200 ) ) )
(or ( <= ( + T3 354 )  ( + T5 250 ) ) ( <= ( + T5 260 )( + T3 268 ) ) )
(or ( <= ( + T3 427 )  ( + T5 260 ) ) ( <= ( + T5 274 )( + T3 354 ) ) )
(or ( <= ( + T3 523 )  ( + T5 274 ) ) ( <= ( + T5 337 )( + T3 427 ) ) )
(or ( <= ( + T3 600 )  ( + T5 337 ) ) ( <= ( + T5 384 )( + T3 523 ) ) )
(or ( <= ( + T3 646 )  ( + T5 384 ) ) ( <= ( + T5 388 )( + T3 600 ) ) )
(or ( <= ( + T3 712 )  ( + T5 388 ) ) ( <= ( + T5 431 )( + T3 646 ) ) )
(or ( <= ( + T3 728 )  ( + T5 431 ) ) ( <= ( + T5 445 )( + T3 712 ) ) )
(or ( <= ( + T3 47 ) T6 ) ( <= ( + T6 89 ) T3 ) )
(or ( <= ( + T3 133 )  ( + T6 89 ) ) ( <= ( + T6 104 )( + T3 47 ) ) )
(or ( <= ( + T3 172 )  ( + T6 104 ) ) ( <= ( + T6 166 )( + T3 133 ) ) )
(or ( <= ( + T3 200 )  ( + T6 166 ) ) ( <= ( + T6 183 )( + T3 172 ) ) )
(or ( <= ( + T3 268 )  ( + T6 183 ) ) ( <= ( + T6 244 )( + T3 200 ) ) )
(or ( <= ( + T3 354 )  ( + T6 244 ) ) ( <= ( + T6 271 )( + T3 268 ) ) )
(or ( <= ( + T3 427 )  ( + T6 271 ) ) ( <= ( + T6 355 )( + T3 354 ) ) )
(or ( <= ( + T3 523 )  ( + T6 355 ) ) ( <= ( + T6 410 )( + T3 427 ) ) )
(or ( <= ( + T3 600 )  ( + T6 410 ) ) ( <= ( + T6 438 )( + T3 523 ) ) )
(or ( <= ( + T3 646 )  ( + T6 438 ) ) ( <= ( + T6 512 )( + T3 600 ) ) )
(or ( <= ( + T3 712 )  ( + T6 512 ) ) ( <= ( + T6 594 )( + T3 646 ) ) )
(or ( <= ( + T3 728 )  ( + T6 594 ) ) ( <= ( + T6 690 )( + T3 712 ) ) )
(or ( <= ( + T3 47 ) T7 ) ( <= ( + T7 85 ) T3 ) )
(or ( <= ( + T3 133 )  ( + T7 85 ) ) ( <= ( + T7 87 )( + T3 47 ) ) )
(or ( <= ( + T3 172 )  ( + T7 87 ) ) ( <= ( + T7 131 )( + T3 133 ) ) )
(or ( <= ( + T3 200 )  ( + T7 131 ) ) ( <= ( + T7 228 )( + T3 172 ) ) )
(or ( <= ( + T3 268 )  ( + T7 228 ) ) ( <= ( + T7 321 )( + T3 200 ) ) )
(or ( <= ( + T3 354 )  ( + T7 321 ) ) ( <= ( + T7 376 )( + T3 268 ) ) )
(or ( <= ( + T3 427 )  ( + T7 376 ) ) ( <= ( + T7 475 )( + T3 354 ) ) )
(or ( <= ( + T3 523 )  ( + T7 475 ) ) ( <= ( + T7 549 )( + T3 427 ) ) )
(or ( <= ( + T3 600 )  ( + T7 549 ) ) ( <= ( + T7 555 )( + T3 523 ) ) )
(or ( <= ( + T3 646 )  ( + T7 555 ) ) ( <= ( + T7 635 )( + T3 600 ) ) )
(or ( <= ( + T3 712 )  ( + T7 635 ) ) ( <= ( + T7 725 )( + T3 646 ) ) )
(or ( <= ( + T3 728 )  ( + T7 725 ) ) ( <= ( + T7 799 )( + T3 712 ) ) )
(or ( <= ( + T3 47 ) T8 ) ( <= ( + T8 41 ) T3 ) )
(or ( <= ( + T3 133 )  ( + T8 41 ) ) ( <= ( + T8 96 )( + T3 47 ) ) )
(or ( <= ( + T3 172 )  ( + T8 96 ) ) ( <= ( + T8 185 )( + T3 133 ) ) )
(or ( <= ( + T3 200 )  ( + T8 185 ) ) ( <= ( + T8 273 )( + T3 172 ) ) )
(or ( <= ( + T3 268 )  ( + T8 273 ) ) ( <= ( + T8 283 )( + T3 200 ) ) )
(or ( <= ( + T3 354 )  ( + T8 283 ) ) ( <= ( + T8 314 )( + T3 268 ) ) )
(or ( <= ( + T3 427 )  ( + T8 314 ) ) ( <= ( + T8 315 )( + T3 354 ) ) )
(or ( <= ( + T3 523 )  ( + T8 315 ) ) ( <= ( + T8 365 )( + T3 427 ) ) )
(or ( <= ( + T3 600 )  ( + T8 365 ) ) ( <= ( + T8 462 )( + T3 523 ) ) )
(or ( <= ( + T3 646 )  ( + T8 462 ) ) ( <= ( + T8 476 )( + T3 600 ) ) )
(or ( <= ( + T3 712 )  ( + T8 476 ) ) ( <= ( + T8 542 )( + T3 646 ) ) )
(or ( <= ( + T3 728 )  ( + T8 542 ) ) ( <= ( + T8 551 )( + T3 712 ) ) )
(or ( <= ( + T3 47 ) T9 ) ( <= ( + T9 40 ) T3 ) )
(or ( <= ( + T3 133 )  ( + T9 40 ) ) ( <= ( + T9 90 )( + T3 47 ) ) )
(or ( <= ( + T3 172 )  ( + T9 90 ) ) ( <= ( + T9 106 )( + T3 133 ) ) )
(or ( <= ( + T3 200 )  ( + T9 106 ) ) ( <= ( + T9 125 )( + T3 172 ) ) )
(or ( <= ( + T3 268 )  ( + T9 125 ) ) ( <= ( + T9 200 )( + T3 200 ) ) )
(or ( <= ( + T3 354 )  ( + T9 200 ) ) ( <= ( + T9 297 )( + T3 268 ) ) )
(or ( <= ( + T3 427 )  ( + T9 297 ) ) ( <= ( + T9 311 )( + T3 354 ) ) )
(or ( <= ( + T3 523 )  ( + T9 311 ) ) ( <= ( + T9 322 )( + T3 427 ) ) )
(or ( <= ( + T3 600 )  ( + T9 322 ) ) ( <= ( + T9 420 )( + T3 523 ) ) )
(or ( <= ( + T3 646 )  ( + T9 420 ) ) ( <= ( + T9 430 )( + T3 600 ) ) )
(or ( <= ( + T3 712 )  ( + T9 430 ) ) ( <= ( + T9 437 )( + T3 646 ) ) )
(or ( <= ( + T3 728 )  ( + T9 437 ) ) ( <= ( + T9 479 )( + T3 712 ) ) )
(or ( <= ( + T3 47 ) T10 ) ( <= ( + T10 64 ) T3 ) )
(or ( <= ( + T3 133 )  ( + T10 64 ) ) ( <= ( + T10 121 )( + T3 47 ) ) )
(or ( <= ( + T3 172 )  ( + T10 121 ) ) ( <= ( + T10 189 )( + T3 133 ) ) )
(or ( <= ( + T3 200 )  ( + T10 189 ) ) ( <= ( + T10 211 )( + T3 172 ) ) )
(or ( <= ( + T3 268 )  ( + T10 211 ) ) ( <= ( + T10 247 )( + T3 200 ) ) )
(or ( <= ( + T3 354 )  ( + T10 247 ) ) ( <= ( + T10 256 )( + T3 268 ) ) )
(or ( <= ( + T3 427 )  ( + T10 256 ) ) ( <= ( + T10 303 )( + T3 354 ) ) )
(or ( <= ( + T3 523 )  ( + T10 303 ) ) ( <= ( + T10 380 )( + T3 427 ) ) )
(or ( <= ( + T3 600 )  ( + T10 380 ) ) ( <= ( + T10 444 )( + T3 523 ) ) )
(or ( <= ( + T3 646 )  ( + T10 444 ) ) ( <= ( + T10 479 )( + T3 600 ) ) )
(or ( <= ( + T3 712 )  ( + T10 479 ) ) ( <= ( + T10 495 )( + T3 646 ) ) )
(or ( <= ( + T3 728 )  ( + T10 495 ) ) ( <= ( + T10 520 )( + T3 712 ) ) )
(or ( <= ( + T4 43 ) T5 ) ( <= ( + T5 82 ) T4 ) )
(or ( <= ( + T4 45 )  ( + T5 82 ) ) ( <= ( + T5 134 )( + T4 43 ) ) )
(or ( <= ( + T4 135 )  ( + T5 134 ) ) ( <= ( + T5 216 )( + T4 45 ) ) )
(or ( <= ( + T4 210 )  ( + T5 216 ) ) ( <= ( + T5 233 )( + T4 135 ) ) )
(or ( <= ( + T4 227 )  ( + T5 233 ) ) ( <= ( + T5 250 )( + T4 210 ) ) )
(or ( <= ( + T4 287 )  ( + T5 250 ) ) ( <= ( + T5 260 )( + T4 227 ) ) )
(or ( <= ( + T4 308 )  ( + T5 260 ) ) ( <= ( + T5 274 )( + T4 287 ) ) )
(or ( <= ( + T4 357 )  ( + T5 274 ) ) ( <= ( + T5 337 )( + T4 308 ) ) )
(or ( <= ( + T4 418 )  ( + T5 337 ) ) ( <= ( + T5 384 )( + T4 357 ) ) )
(or ( <= ( + T4 457 )  ( + T5 384 ) ) ( <= ( + T5 388 )( + T4 418 ) ) )
(or ( <= ( + T4 517 )  ( + T5 388 ) ) ( <= ( + T5 431 )( + T4 457 ) ) )
(or ( <= ( + T4 520 )  ( + T5 431 ) ) ( <= ( + T5 445 )( + T4 517 ) ) )
(or ( <= ( + T4 43 ) T6 ) ( <= ( + T6 89 ) T4 ) )
(or ( <= ( + T4 45 )  ( + T6 89 ) ) ( <= ( + T6 104 )( + T4 43 ) ) )
(or ( <= ( + T4 135 )  ( + T6 104 ) ) ( <= ( + T6 166 )( + T4 45 ) ) )
(or ( <= ( + T4 210 )  ( + T6 166 ) ) ( <= ( + T6 183 )( + T4 135 ) ) )
(or ( <= ( + T4 227 )  ( + T6 183 ) ) ( <= ( + T6 244 )( + T4 210 ) ) )
(or ( <= ( + T4 287 )  ( + T6 244 ) ) ( <= ( + T6 271 )( + T4 227 ) ) )
(or ( <= ( + T4 308 )  ( + T6 271 ) ) ( <= ( + T6 355 )( + T4 287 ) ) )
(or ( <= ( + T4 357 )  ( + T6 355 ) ) ( <= ( + T6 410 )( + T4 308 ) ) )
(or ( <= ( + T4 418 )  ( + T6 410 ) ) ( <= ( + T6 438 )( + T4 357 ) ) )
(or ( <= ( + T4 457 )  ( + T6 438 ) ) ( <= ( + T6 512 )( + T4 418 ) ) )
(or ( <= ( + T4 517 )  ( + T6 512 ) ) ( <= ( + T6 594 )( + T4 457 ) ) )
(or ( <= ( + T4 520 )  ( + T6 594 ) ) ( <= ( + T6 690 )( + T4 517 ) ) )
(or ( <= ( + T4 43 ) T7 ) ( <= ( + T7 85 ) T4 ) )
(or ( <= ( + T4 45 )  ( + T7 85 ) ) ( <= ( + T7 87 )( + T4 43 ) ) )
(or ( <= ( + T4 135 )  ( + T7 87 ) ) ( <= ( + T7 131 )( + T4 45 ) ) )
(or ( <= ( + T4 210 )  ( + T7 131 ) ) ( <= ( + T7 228 )( + T4 135 ) ) )
(or ( <= ( + T4 227 )  ( + T7 228 ) ) ( <= ( + T7 321 )( + T4 210 ) ) )
(or ( <= ( + T4 287 )  ( + T7 321 ) ) ( <= ( + T7 376 )( + T4 227 ) ) )
(or ( <= ( + T4 308 )  ( + T7 376 ) ) ( <= ( + T7 475 )( + T4 287 ) ) )
(or ( <= ( + T4 357 )  ( + T7 475 ) ) ( <= ( + T7 549 )( + T4 308 ) ) )
(or ( <= ( + T4 418 )  ( + T7 549 ) ) ( <= ( + T7 555 )( + T4 357 ) ) )
(or ( <= ( + T4 457 )  ( + T7 555 ) ) ( <= ( + T7 635 )( + T4 418 ) ) )
(or ( <= ( + T4 517 )  ( + T7 635 ) ) ( <= ( + T7 725 )( + T4 457 ) ) )
(or ( <= ( + T4 520 )  ( + T7 725 ) ) ( <= ( + T7 799 )( + T4 517 ) ) )
(or ( <= ( + T4 43 ) T8 ) ( <= ( + T8 41 ) T4 ) )
(or ( <= ( + T4 45 )  ( + T8 41 ) ) ( <= ( + T8 96 )( + T4 43 ) ) )
(or ( <= ( + T4 135 )  ( + T8 96 ) ) ( <= ( + T8 185 )( + T4 45 ) ) )
(or ( <= ( + T4 210 )  ( + T8 185 ) ) ( <= ( + T8 273 )( + T4 135 ) ) )
(or ( <= ( + T4 227 )  ( + T8 273 ) ) ( <= ( + T8 283 )( + T4 210 ) ) )
(or ( <= ( + T4 287 )  ( + T8 283 ) ) ( <= ( + T8 314 )( + T4 227 ) ) )
(or ( <= ( + T4 308 )  ( + T8 314 ) ) ( <= ( + T8 315 )( + T4 287 ) ) )
(or ( <= ( + T4 357 )  ( + T8 315 ) ) ( <= ( + T8 365 )( + T4 308 ) ) )
(or ( <= ( + T4 418 )  ( + T8 365 ) ) ( <= ( + T8 462 )( + T4 357 ) ) )
(or ( <= ( + T4 457 )  ( + T8 462 ) ) ( <= ( + T8 476 )( + T4 418 ) ) )
(or ( <= ( + T4 517 )  ( + T8 476 ) ) ( <= ( + T8 542 )( + T4 457 ) ) )
(or ( <= ( + T4 520 )  ( + T8 542 ) ) ( <= ( + T8 551 )( + T4 517 ) ) )
(or ( <= ( + T4 43 ) T9 ) ( <= ( + T9 40 ) T4 ) )
(or ( <= ( + T4 45 )  ( + T9 40 ) ) ( <= ( + T9 90 )( + T4 43 ) ) )
(or ( <= ( + T4 135 )  ( + T9 90 ) ) ( <= ( + T9 106 )( + T4 45 ) ) )
(or ( <= ( + T4 210 )  ( + T9 106 ) ) ( <= ( + T9 125 )( + T4 135 ) ) )
(or ( <= ( + T4 227 )  ( + T9 125 ) ) ( <= ( + T9 200 )( + T4 210 ) ) )
(or ( <= ( + T4 287 )  ( + T9 200 ) ) ( <= ( + T9 297 )( + T4 227 ) ) )
(or ( <= ( + T4 308 )  ( + T9 297 ) ) ( <= ( + T9 311 )( + T4 287 ) ) )
(or ( <= ( + T4 357 )  ( + T9 311 ) ) ( <= ( + T9 322 )( + T4 308 ) ) )
(or ( <= ( + T4 418 )  ( + T9 322 ) ) ( <= ( + T9 420 )( + T4 357 ) ) )
(or ( <= ( + T4 457 )  ( + T9 420 ) ) ( <= ( + T9 430 )( + T4 418 ) ) )
(or ( <= ( + T4 517 )  ( + T9 430 ) ) ( <= ( + T9 437 )( + T4 457 ) ) )
(or ( <= ( + T4 520 )  ( + T9 437 ) ) ( <= ( + T9 479 )( + T4 517 ) ) )
(or ( <= ( + T4 43 ) T10 ) ( <= ( + T10 64 ) T4 ) )
(or ( <= ( + T4 45 )  ( + T10 64 ) ) ( <= ( + T10 121 )( + T4 43 ) ) )
(or ( <= ( + T4 135 )  ( + T10 121 ) ) ( <= ( + T10 189 )( + T4 45 ) ) )
(or ( <= ( + T4 210 )  ( + T10 189 ) ) ( <= ( + T10 211 )( + T4 135 ) ) )
(or ( <= ( + T4 227 )  ( + T10 211 ) ) ( <= ( + T10 247 )( + T4 210 ) ) )
(or ( <= ( + T4 287 )  ( + T10 247 ) ) ( <= ( + T10 256 )( + T4 227 ) ) )
(or ( <= ( + T4 308 )  ( + T10 256 ) ) ( <= ( + T10 303 )( + T4 287 ) ) )
(or ( <= ( + T4 357 )  ( + T10 303 ) ) ( <= ( + T10 380 )( + T4 308 ) ) )
(or ( <= ( + T4 418 )  ( + T10 380 ) ) ( <= ( + T10 444 )( + T4 357 ) ) )
(or ( <= ( + T4 457 )  ( + T10 444 ) ) ( <= ( + T10 479 )( + T4 418 ) ) )
(or ( <= ( + T4 517 )  ( + T10 479 ) ) ( <= ( + T10 495 )( + T4 457 ) ) )
(or ( <= ( + T4 520 )  ( + T10 495 ) ) ( <= ( + T10 520 )( + T4 517 ) ) )
(or ( <= ( + T5 82 ) T6 ) ( <= ( + T6 89 ) T5 ) )
(or ( <= ( + T5 134 )  ( + T6 89 ) ) ( <= ( + T6 104 )( + T5 82 ) ) )
(or ( <= ( + T5 216 )  ( + T6 104 ) ) ( <= ( + T6 166 )( + T5 134 ) ) )
(or ( <= ( + T5 233 )  ( + T6 166 ) ) ( <= ( + T6 183 )( + T5 216 ) ) )
(or ( <= ( + T5 250 )  ( + T6 183 ) ) ( <= ( + T6 244 )( + T5 233 ) ) )
(or ( <= ( + T5 260 )  ( + T6 244 ) ) ( <= ( + T6 271 )( + T5 250 ) ) )
(or ( <= ( + T5 274 )  ( + T6 271 ) ) ( <= ( + T6 355 )( + T5 260 ) ) )
(or ( <= ( + T5 337 )  ( + T6 355 ) ) ( <= ( + T6 410 )( + T5 274 ) ) )
(or ( <= ( + T5 384 )  ( + T6 410 ) ) ( <= ( + T6 438 )( + T5 337 ) ) )
(or ( <= ( + T5 388 )  ( + T6 438 ) ) ( <= ( + T6 512 )( + T5 384 ) ) )
(or ( <= ( + T5 431 )  ( + T6 512 ) ) ( <= ( + T6 594 )( + T5 388 ) ) )
(or ( <= ( + T5 445 )  ( + T6 594 ) ) ( <= ( + T6 690 )( + T5 431 ) ) )
(or ( <= ( + T5 82 ) T7 ) ( <= ( + T7 85 ) T5 ) )
(or ( <= ( + T5 134 )  ( + T7 85 ) ) ( <= ( + T7 87 )( + T5 82 ) ) )
(or ( <= ( + T5 216 )  ( + T7 87 ) ) ( <= ( + T7 131 )( + T5 134 ) ) )
(or ( <= ( + T5 233 )  ( + T7 131 ) ) ( <= ( + T7 228 )( + T5 216 ) ) )
(or ( <= ( + T5 250 )  ( + T7 228 ) ) ( <= ( + T7 321 )( + T5 233 ) ) )
(or ( <= ( + T5 260 )  ( + T7 321 ) ) ( <= ( + T7 376 )( + T5 250 ) ) )
(or ( <= ( + T5 274 )  ( + T7 376 ) ) ( <= ( + T7 475 )( + T5 260 ) ) )
(or ( <= ( + T5 337 )  ( + T7 475 ) ) ( <= ( + T7 549 )( + T5 274 ) ) )
(or ( <= ( + T5 384 )  ( + T7 549 ) ) ( <= ( + T7 555 )( + T5 337 ) ) )
(or ( <= ( + T5 388 )  ( + T7 555 ) ) ( <= ( + T7 635 )( + T5 384 ) ) )
(or ( <= ( + T5 431 )  ( + T7 635 ) ) ( <= ( + T7 725 )( + T5 388 ) ) )
(or ( <= ( + T5 445 )  ( + T7 725 ) ) ( <= ( + T7 799 )( + T5 431 ) ) )
(or ( <= ( + T5 82 ) T8 ) ( <= ( + T8 41 ) T5 ) )
(or ( <= ( + T5 134 )  ( + T8 41 ) ) ( <= ( + T8 96 )( + T5 82 ) ) )
(or ( <= ( + T5 216 )  ( + T8 96 ) ) ( <= ( + T8 185 )( + T5 134 ) ) )
(or ( <= ( + T5 233 )  ( + T8 185 ) ) ( <= ( + T8 273 )( + T5 216 ) ) )
(or ( <= ( + T5 250 )  ( + T8 273 ) ) ( <= ( + T8 283 )( + T5 233 ) ) )
(or ( <= ( + T5 260 )  ( + T8 283 ) ) ( <= ( + T8 314 )( + T5 250 ) ) )
(or ( <= ( + T5 274 )  ( + T8 314 ) ) ( <= ( + T8 315 )( + T5 260 ) ) )
(or ( <= ( + T5 337 )  ( + T8 315 ) ) ( <= ( + T8 365 )( + T5 274 ) ) )
(or ( <= ( + T5 384 )  ( + T8 365 ) ) ( <= ( + T8 462 )( + T5 337 ) ) )
(or ( <= ( + T5 388 )  ( + T8 462 ) ) ( <= ( + T8 476 )( + T5 384 ) ) )
(or ( <= ( + T5 431 )  ( + T8 476 ) ) ( <= ( + T8 542 )( + T5 388 ) ) )
(or ( <= ( + T5 445 )  ( + T8 542 ) ) ( <= ( + T8 551 )( + T5 431 ) ) )
(or ( <= ( + T5 82 ) T9 ) ( <= ( + T9 40 ) T5 ) )
(or ( <= ( + T5 134 )  ( + T9 40 ) ) ( <= ( + T9 90 )( + T5 82 ) ) )
(or ( <= ( + T5 216 )  ( + T9 90 ) ) ( <= ( + T9 106 )( + T5 134 ) ) )
(or ( <= ( + T5 233 )  ( + T9 106 ) ) ( <= ( + T9 125 )( + T5 216 ) ) )
(or ( <= ( + T5 250 )  ( + T9 125 ) ) ( <= ( + T9 200 )( + T5 233 ) ) )
(or ( <= ( + T5 260 )  ( + T9 200 ) ) ( <= ( + T9 297 )( + T5 250 ) ) )
(or ( <= ( + T5 274 )  ( + T9 297 ) ) ( <= ( + T9 311 )( + T5 260 ) ) )
(or ( <= ( + T5 337 )  ( + T9 311 ) ) ( <= ( + T9 322 )( + T5 274 ) ) )
(or ( <= ( + T5 384 )  ( + T9 322 ) ) ( <= ( + T9 420 )( + T5 337 ) ) )
(or ( <= ( + T5 388 )  ( + T9 420 ) ) ( <= ( + T9 430 )( + T5 384 ) ) )
(or ( <= ( + T5 431 )  ( + T9 430 ) ) ( <= ( + T9 437 )( + T5 388 ) ) )
(or ( <= ( + T5 445 )  ( + T9 437 ) ) ( <= ( + T9 479 )( + T5 431 ) ) )
(or ( <= ( + T5 82 ) T10 ) ( <= ( + T10 64 ) T5 ) )
(or ( <= ( + T5 134 )  ( + T10 64 ) ) ( <= ( + T10 121 )( + T5 82 ) ) )
(or ( <= ( + T5 216 )  ( + T10 121 ) ) ( <= ( + T10 189 )( + T5 134 ) ) )
(or ( <= ( + T5 233 )  ( + T10 189 ) ) ( <= ( + T10 211 )( + T5 216 ) ) )
(or ( <= ( + T5 250 )  ( + T10 211 ) ) ( <= ( + T10 247 )( + T5 233 ) ) )
(or ( <= ( + T5 260 )  ( + T10 247 ) ) ( <= ( + T10 256 )( + T5 250 ) ) )
(or ( <= ( + T5 274 )  ( + T10 256 ) ) ( <= ( + T10 303 )( + T5 260 ) ) )
(or ( <= ( + T5 337 )  ( + T10 303 ) ) ( <= ( + T10 380 )( + T5 274 ) ) )
(or ( <= ( + T5 384 )  ( + T10 380 ) ) ( <= ( + T10 444 )( + T5 337 ) ) )
(or ( <= ( + T5 388 )  ( + T10 444 ) ) ( <= ( + T10 479 )( + T5 384 ) ) )
(or ( <= ( + T5 431 )  ( + T10 479 ) ) ( <= ( + T10 495 )( + T5 388 ) ) )
(or ( <= ( + T5 445 )  ( + T10 495 ) ) ( <= ( + T10 520 )( + T5 431 ) ) )
(or ( <= ( + T6 89 ) T7 ) ( <= ( + T7 85 ) T6 ) )
(or ( <= ( + T6 104 )  ( + T7 85 ) ) ( <= ( + T7 87 )( + T6 89 ) ) )
(or ( <= ( + T6 166 )  ( + T7 87 ) ) ( <= ( + T7 131 )( + T6 104 ) ) )
(or ( <= ( + T6 183 )  ( + T7 131 ) ) ( <= ( + T7 228 )( + T6 166 ) ) )
(or ( <= ( + T6 244 )  ( + T7 228 ) ) ( <= ( + T7 321 )( + T6 183 ) ) )
(or ( <= ( + T6 271 )  ( + T7 321 ) ) ( <= ( + T7 376 )( + T6 244 ) ) )
(or ( <= ( + T6 355 )  ( + T7 376 ) ) ( <= ( + T7 475 )( + T6 271 ) ) )
(or ( <= ( + T6 410 )  ( + T7 475 ) ) ( <= ( + T7 549 )( + T6 355 ) ) )
(or ( <= ( + T6 438 )  ( + T7 549 ) ) ( <= ( + T7 555 )( + T6 410 ) ) )
(or ( <= ( + T6 512 )  ( + T7 555 ) ) ( <= ( + T7 635 )( + T6 438 ) ) )
(or ( <= ( + T6 594 )  ( + T7 635 ) ) ( <= ( + T7 725 )( + T6 512 ) ) )
(or ( <= ( + T6 690 )  ( + T7 725 ) ) ( <= ( + T7 799 )( + T6 594 ) ) )
(or ( <= ( + T6 89 ) T8 ) ( <= ( + T8 41 ) T6 ) )
(or ( <= ( + T6 104 )  ( + T8 41 ) ) ( <= ( + T8 96 )( + T6 89 ) ) )
(or ( <= ( + T6 166 )  ( + T8 96 ) ) ( <= ( + T8 185 )( + T6 104 ) ) )
(or ( <= ( + T6 183 )  ( + T8 185 ) ) ( <= ( + T8 273 )( + T6 166 ) ) )
(or ( <= ( + T6 244 )  ( + T8 273 ) ) ( <= ( + T8 283 )( + T6 183 ) ) )
(or ( <= ( + T6 271 )  ( + T8 283 ) ) ( <= ( + T8 314 )( + T6 244 ) ) )
(or ( <= ( + T6 355 )  ( + T8 314 ) ) ( <= ( + T8 315 )( + T6 271 ) ) )
(or ( <= ( + T6 410 )  ( + T8 315 ) ) ( <= ( + T8 365 )( + T6 355 ) ) )
(or ( <= ( + T6 438 )  ( + T8 365 ) ) ( <= ( + T8 462 )( + T6 410 ) ) )
(or ( <= ( + T6 512 )  ( + T8 462 ) ) ( <= ( + T8 476 )( + T6 438 ) ) )
(or ( <= ( + T6 594 )  ( + T8 476 ) ) ( <= ( + T8 542 )( + T6 512 ) ) )
(or ( <= ( + T6 690 )  ( + T8 542 ) ) ( <= ( + T8 551 )( + T6 594 ) ) )
(or ( <= ( + T6 89 ) T9 ) ( <= ( + T9 40 ) T6 ) )
(or ( <= ( + T6 104 )  ( + T9 40 ) ) ( <= ( + T9 90 )( + T6 89 ) ) )
(or ( <= ( + T6 166 )  ( + T9 90 ) ) ( <= ( + T9 106 )( + T6 104 ) ) )
(or ( <= ( + T6 183 )  ( + T9 106 ) ) ( <= ( + T9 125 )( + T6 166 ) ) )
(or ( <= ( + T6 244 )  ( + T9 125 ) ) ( <= ( + T9 200 )( + T6 183 ) ) )
(or ( <= ( + T6 271 )  ( + T9 200 ) ) ( <= ( + T9 297 )( + T6 244 ) ) )
(or ( <= ( + T6 355 )  ( + T9 297 ) ) ( <= ( + T9 311 )( + T6 271 ) ) )
(or ( <= ( + T6 410 )  ( + T9 311 ) ) ( <= ( + T9 322 )( + T6 355 ) ) )
(or ( <= ( + T6 438 )  ( + T9 322 ) ) ( <= ( + T9 420 )( + T6 410 ) ) )
(or ( <= ( + T6 512 )  ( + T9 420 ) ) ( <= ( + T9 430 )( + T6 438 ) ) )
(or ( <= ( + T6 594 )  ( + T9 430 ) ) ( <= ( + T9 437 )( + T6 512 ) ) )
(or ( <= ( + T6 690 )  ( + T9 437 ) ) ( <= ( + T9 479 )( + T6 594 ) ) )
(or ( <= ( + T6 89 ) T10 ) ( <= ( + T10 64 ) T6 ) )
(or ( <= ( + T6 104 )  ( + T10 64 ) ) ( <= ( + T10 121 )( + T6 89 ) ) )
(or ( <= ( + T6 166 )  ( + T10 121 ) ) ( <= ( + T10 189 )( + T6 104 ) ) )
(or ( <= ( + T6 183 )  ( + T10 189 ) ) ( <= ( + T10 211 )( + T6 166 ) ) )
(or ( <= ( + T6 244 )  ( + T10 211 ) ) ( <= ( + T10 247 )( + T6 183 ) ) )
(or ( <= ( + T6 271 )  ( + T10 247 ) ) ( <= ( + T10 256 )( + T6 244 ) ) )
(or ( <= ( + T6 355 )  ( + T10 256 ) ) ( <= ( + T10 303 )( + T6 271 ) ) )
(or ( <= ( + T6 410 )  ( + T10 303 ) ) ( <= ( + T10 380 )( + T6 355 ) ) )
(or ( <= ( + T6 438 )  ( + T10 380 ) ) ( <= ( + T10 444 )( + T6 410 ) ) )
(or ( <= ( + T6 512 )  ( + T10 444 ) ) ( <= ( + T10 479 )( + T6 438 ) ) )
(or ( <= ( + T6 594 )  ( + T10 479 ) ) ( <= ( + T10 495 )( + T6 512 ) ) )
(or ( <= ( + T6 690 )  ( + T10 495 ) ) ( <= ( + T10 520 )( + T6 594 ) ) )
(or ( <= ( + T7 85 ) T8 ) ( <= ( + T8 41 ) T7 ) )
(or ( <= ( + T7 87 )  ( + T8 41 ) ) ( <= ( + T8 96 )( + T7 85 ) ) )
(or ( <= ( + T7 131 )  ( + T8 96 ) ) ( <= ( + T8 185 )( + T7 87 ) ) )
(or ( <= ( + T7 228 )  ( + T8 185 ) ) ( <= ( + T8 273 )( + T7 131 ) ) )
(or ( <= ( + T7 321 )  ( + T8 273 ) ) ( <= ( + T8 283 )( + T7 228 ) ) )
(or ( <= ( + T7 376 )  ( + T8 283 ) ) ( <= ( + T8 314 )( + T7 321 ) ) )
(or ( <= ( + T7 475 )  ( + T8 314 ) ) ( <= ( + T8 315 )( + T7 376 ) ) )
(or ( <= ( + T7 549 )  ( + T8 315 ) ) ( <= ( + T8 365 )( + T7 475 ) ) )
(or ( <= ( + T7 555 )  ( + T8 365 ) ) ( <= ( + T8 462 )( + T7 549 ) ) )
(or ( <= ( + T7 635 )  ( + T8 462 ) ) ( <= ( + T8 476 )( + T7 555 ) ) )
(or ( <= ( + T7 725 )  ( + T8 476 ) ) ( <= ( + T8 542 )( + T7 635 ) ) )
(or ( <= ( + T7 799 )  ( + T8 542 ) ) ( <= ( + T8 551 )( + T7 725 ) ) )
(or ( <= ( + T7 85 ) T9 ) ( <= ( + T9 40 ) T7 ) )
(or ( <= ( + T7 87 )  ( + T9 40 ) ) ( <= ( + T9 90 )( + T7 85 ) ) )
(or ( <= ( + T7 131 )  ( + T9 90 ) ) ( <= ( + T9 106 )( + T7 87 ) ) )
(or ( <= ( + T7 228 )  ( + T9 106 ) ) ( <= ( + T9 125 )( + T7 131 ) ) )
(or ( <= ( + T7 321 )  ( + T9 125 ) ) ( <= ( + T9 200 )( + T7 228 ) ) )
(or ( <= ( + T7 376 )  ( + T9 200 ) ) ( <= ( + T9 297 )( + T7 321 ) ) )
(or ( <= ( + T7 475 )  ( + T9 297 ) ) ( <= ( + T9 311 )( + T7 376 ) ) )
(or ( <= ( + T7 549 )  ( + T9 311 ) ) ( <= ( + T9 322 )( + T7 475 ) ) )
(or ( <= ( + T7 555 )  ( + T9 322 ) ) ( <= ( + T9 420 )( + T7 549 ) ) )
(or ( <= ( + T7 635 )  ( + T9 420 ) ) ( <= ( + T9 430 )( + T7 555 ) ) )
(or ( <= ( + T7 725 )  ( + T9 430 ) ) ( <= ( + T9 437 )( + T7 635 ) ) )
(or ( <= ( + T7 799 )  ( + T9 437 ) ) ( <= ( + T9 479 )( + T7 725 ) ) )
(or ( <= ( + T7 85 ) T10 ) ( <= ( + T10 64 ) T7 ) )
(or ( <= ( + T7 87 )  ( + T10 64 ) ) ( <= ( + T10 121 )( + T7 85 ) ) )
(or ( <= ( + T7 131 )  ( + T10 121 ) ) ( <= ( + T10 189 )( + T7 87 ) ) )
(or ( <= ( + T7 228 )  ( + T10 189 ) ) ( <= ( + T10 211 )( + T7 131 ) ) )
(or ( <= ( + T7 321 )  ( + T10 211 ) ) ( <= ( + T10 247 )( + T7 228 ) ) )
(or ( <= ( + T7 376 )  ( + T10 247 ) ) ( <= ( + T10 256 )( + T7 321 ) ) )
(or ( <= ( + T7 475 )  ( + T10 256 ) ) ( <= ( + T10 303 )( + T7 376 ) ) )
(or ( <= ( + T7 549 )  ( + T10 303 ) ) ( <= ( + T10 380 )( + T7 475 ) ) )
(or ( <= ( + T7 555 )  ( + T10 380 ) ) ( <= ( + T10 444 )( + T7 549 ) ) )
(or ( <= ( + T7 635 )  ( + T10 444 ) ) ( <= ( + T10 479 )( + T7 555 ) ) )
(or ( <= ( + T7 725 )  ( + T10 479 ) ) ( <= ( + T10 495 )( + T7 635 ) ) )
(or ( <= ( + T7 799 )  ( + T10 495 ) ) ( <= ( + T10 520 )( + T7 725 ) ) )
(or ( <= ( + T8 41 ) T9 ) ( <= ( + T9 40 ) T8 ) )
(or ( <= ( + T8 96 )  ( + T9 40 ) ) ( <= ( + T9 90 )( + T8 41 ) ) )
(or ( <= ( + T8 185 )  ( + T9 90 ) ) ( <= ( + T9 106 )( + T8 96 ) ) )
(or ( <= ( + T8 273 )  ( + T9 106 ) ) ( <= ( + T9 125 )( + T8 185 ) ) )
(or ( <= ( + T8 283 )  ( + T9 125 ) ) ( <= ( + T9 200 )( + T8 273 ) ) )
(or ( <= ( + T8 314 )  ( + T9 200 ) ) ( <= ( + T9 297 )( + T8 283 ) ) )
(or ( <= ( + T8 315 )  ( + T9 297 ) ) ( <= ( + T9 311 )( + T8 314 ) ) )
(or ( <= ( + T8 365 )  ( + T9 311 ) ) ( <= ( + T9 322 )( + T8 315 ) ) )
(or ( <= ( + T8 462 )  ( + T9 322 ) ) ( <= ( + T9 420 )( + T8 365 ) ) )
(or ( <= ( + T8 476 )  ( + T9 420 ) ) ( <= ( + T9 430 )( + T8 462 ) ) )
(or ( <= ( + T8 542 )  ( + T9 430 ) ) ( <= ( + T9 437 )( + T8 476 ) ) )
(or ( <= ( + T8 551 )  ( + T9 437 ) ) ( <= ( + T9 479 )( + T8 542 ) ) )
(or ( <= ( + T8 41 ) T10 ) ( <= ( + T10 64 ) T8 ) )
(or ( <= ( + T8 96 )  ( + T10 64 ) ) ( <= ( + T10 121 )( + T8 41 ) ) )
(or ( <= ( + T8 185 )  ( + T10 121 ) ) ( <= ( + T10 189 )( + T8 96 ) ) )
(or ( <= ( + T8 273 )  ( + T10 189 ) ) ( <= ( + T10 211 )( + T8 185 ) ) )
(or ( <= ( + T8 283 )  ( + T10 211 ) ) ( <= ( + T10 247 )( + T8 273 ) ) )
(or ( <= ( + T8 314 )  ( + T10 247 ) ) ( <= ( + T10 256 )( + T8 283 ) ) )
(or ( <= ( + T8 315 )  ( + T10 256 ) ) ( <= ( + T10 303 )( + T8 314 ) ) )
(or ( <= ( + T8 365 )  ( + T10 303 ) ) ( <= ( + T10 380 )( + T8 315 ) ) )
(or ( <= ( + T8 462 )  ( + T10 380 ) ) ( <= ( + T10 444 )( + T8 365 ) ) )
(or ( <= ( + T8 476 )  ( + T10 444 ) ) ( <= ( + T10 479 )( + T8 462 ) ) )
(or ( <= ( + T8 542 )  ( + T10 479 ) ) ( <= ( + T10 495 )( + T8 476 ) ) )
(or ( <= ( + T8 551 )  ( + T10 495 ) ) ( <= ( + T10 520 )( + T8 542 ) ) )
(or ( <= ( + T9 40 ) T10 ) ( <= ( + T10 64 ) T9 ) )
(or ( <= ( + T9 90 )  ( + T10 64 ) ) ( <= ( + T10 121 )( + T9 40 ) ) )
(or ( <= ( + T9 106 )  ( + T10 121 ) ) ( <= ( + T10 189 )( + T9 90 ) ) )
(or ( <= ( + T9 125 )  ( + T10 189 ) ) ( <= ( + T10 211 )( + T9 106 ) ) )
(or ( <= ( + T9 200 )  ( + T10 211 ) ) ( <= ( + T10 247 )( + T9 125 ) ) )
(or ( <= ( + T9 297 )  ( + T10 247 ) ) ( <= ( + T10 256 )( + T9 200 ) ) )
(or ( <= ( + T9 311 )  ( + T10 256 ) ) ( <= ( + T10 303 )( + T9 297 ) ) )
(or ( <= ( + T9 322 )  ( + T10 303 ) ) ( <= ( + T10 380 )( + T9 311 ) ) )
(or ( <= ( + T9 420 )  ( + T10 380 ) ) ( <= ( + T10 444 )( + T9 322 ) ) )
(or ( <= ( + T9 430 )  ( + T10 444 ) ) ( <= ( + T10 479 )( + T9 420 ) ) )
(or ( <= ( + T9 437 )  ( + T10 479 ) ) ( <= ( + T10 495 )( + T9 430 ) ) )
(or ( <= ( + T9 479 )  ( + T10 495 ) ) ( <= ( + T10 520 )( + T9 437 ) ) )
( <= ( + T1 721 ) Z)
( <= ( + T2 640 ) Z)
( <= ( + T3 728 ) Z)
( <= ( + T4 520 ) Z)
( <= ( + T5 445 ) Z)
( <= ( + T6 690 ) Z)
( <= ( + T7 799 ) Z)
( <= ( + T8 551 ) Z)
( <= ( + T9 479 ) Z)
( <= ( + T10 520 ) Z)
( >= T1 0 )
( >= T2 0 )
( >= T3 0 )
( >= T4 0 )
( >= T5 0 )
( >= T6 0 )
( >= T7 0 )
( >= T8 0 )
( >= T9 0 )
( >= T10 0 )
) )
)(=> $phi $goal))))